NAME          
ROWS
 N  OBJ
 G  c1
 G  c2
 G  c3
 G  c4
 G  c5
 G  c6
 G  c7
 G  c8
 G  c9
 G  c10
 G  c11
 G  c12
 G  c13
 G  c14
 G  c15
 G  c16
 G  c17
 G  c18
 G  c19
 G  c20
 G  c21
 G  c22
 G  c23
 G  c24
 G  c25
 G  c26
 G  c27
 G  c28
 G  c29
 G  c30
COLUMNS
    MARKER    'MARKER'                 'INTORG'
    x[1]      c1        1
    x[1]      c5        1
    x[1]      c6        1
    x[1]      c12       1
    x[1]      c16       1
    x[1]      c21       1
    x[1]      c26       1
    x[1]      c27       1
    x[1]      c30       1
    x[1]      OBJ       1
    x[2]      c6        1
    x[2]      c12       1
    x[2]      c15       1
    x[2]      c17       1
    x[2]      c18       1
    x[2]      c20       1
    x[2]      OBJ       1
    x[3]      c1        1
    x[3]      c11       1
    x[3]      c15       1
    x[3]      c17       1
    x[3]      c27       1
    x[3]      c29       1
    x[3]      OBJ       1
    x[4]      c8        1
    x[4]      c12       1
    x[4]      c17       1
    x[4]      c18       1
    x[4]      OBJ       1
    x[5]      c1        1
    x[5]      c3        1
    x[5]      c14       1
    x[5]      c18       1
    x[5]      c22       1
    x[5]      c24       1
    x[5]      OBJ       1
    x[6]      c7        1
    x[6]      c11       1
    x[6]      c13       1
    x[6]      c17       1
    x[6]      c20       1
    x[6]      c21       1
    x[6]      OBJ       1
    x[7]      c3        1
    x[7]      c5        1
    x[7]      c12       1
    x[7]      c28       1
    x[7]      c30       1
    x[7]      OBJ       1
    x[8]      c2        1
    x[8]      c3        1
    x[8]      c10       1
    x[8]      c12       1
    x[8]      c13       1
    x[8]      c21       1
    x[8]      c24       1
    x[8]      c26       1
    x[8]      c30       1
    x[8]      OBJ       1
    x[9]      c1        1
    x[9]      c3        1
    x[9]      c4        1
    x[9]      c13       1
    x[9]      c18       1
    x[9]      c26       1
    x[9]      c27       1
    x[9]      c28       1
    x[9]      OBJ       1
    x[10]     c7        1
    x[10]     c11       1
    x[10]     c19       1
    x[10]     c22       1
    x[10]     c24       1
    x[10]     c27       1
    x[10]     OBJ       1
    x[11]     c7        1
    x[11]     c13       1
    x[11]     c15       1
    x[11]     c23       1
    x[11]     c29       1
    x[11]     OBJ       1
    x[12]     c5        1
    x[12]     c7        1
    x[12]     c11       1
    x[12]     c17       1
    x[12]     c23       1
    x[12]     OBJ       1
    x[13]     c7        1
    x[13]     c14       1
    x[13]     c15       1
    x[13]     c16       1
    x[13]     c20       1
    x[13]     c23       1
    x[13]     OBJ       1
    x[14]     c3        1
    x[14]     c5        1
    x[14]     c13       1
    x[14]     c16       1
    x[14]     c24       1
    x[14]     c26       1
    x[14]     c29       1
    x[14]     OBJ       1
    x[15]     c1        1
    x[15]     c3        1
    x[15]     c7        1
    x[15]     c10       1
    x[15]     c14       1
    x[15]     c17       1
    x[15]     c20       1
    x[15]     c26       1
    x[15]     c27       1
    x[15]     c28       1
    x[15]     OBJ       1
    x[16]     c7        1
    x[16]     c14       1
    x[16]     c16       1
    x[16]     OBJ       1
    x[17]     c1        1
    x[17]     c3        1
    x[17]     c16       1
    x[17]     c17       1
    x[17]     c29       1
    x[17]     c30       1
    x[17]     OBJ       1
    x[18]     c13       1
    x[18]     c17       1
    x[18]     c24       1
    x[18]     c29       1
    x[18]     c30       1
    x[18]     OBJ       1
    x[19]     c9        1
    x[19]     c25       1
    x[19]     c30       1
    x[19]     OBJ       1
    x[20]     c7        1
    x[20]     c13       1
    x[20]     c18       1
    x[20]     OBJ       1
RHS
    rhs       c1        1
    rhs       c2        1
    rhs       c3        1
    rhs       c4        1
    rhs       c5        1
    rhs       c6        1
    rhs       c7        1
    rhs       c8        1
    rhs       c9        1
    rhs       c10       1
    rhs       c11       1
    rhs       c12       1
    rhs       c13       1
    rhs       c14       1
    rhs       c15       1
    rhs       c16       1
    rhs       c17       1
    rhs       c18       1
    rhs       c19       1
    rhs       c20       1
    rhs       c21       1
    rhs       c22       1
    rhs       c23       1
    rhs       c24       1
    rhs       c25       1
    rhs       c26       1
    rhs       c27       1
    rhs       c28       1
    rhs       c29       1
    rhs       c30       1
RANGES
BOUNDS
 BV bounds    x[1]
 BV bounds    x[2]
 BV bounds    x[3]
 BV bounds    x[4]
 BV bounds    x[5]
 BV bounds    x[6]
 BV bounds    x[7]
 BV bounds    x[8]
 BV bounds    x[9]
 BV bounds    x[10]
 BV bounds    x[11]
 BV bounds    x[12]
 BV bounds    x[13]
 BV bounds    x[14]
 BV bounds    x[15]
 BV bounds    x[16]
 BV bounds    x[17]
 BV bounds    x[18]
 BV bounds    x[19]
 BV bounds    x[20]
ENDATA
